NAME : C7.583188.tour
COMMENT : Length = 583188
COMMENT : Found by LKH [Keld Helsgaun] Mon Dec 18 21:14:59 2017
TYPE : TOUR
DIMENSION : 85
TOUR_SECTION
1
35
53
28
30
49
48
37
70
82
68
47
9
20
55
14
58
16
80
69
7
34
64
24
57
50
25
83
5
46
6
38
21
71
61
72
79
27
52
17
4
45
33
51
19
78
8
36
54
12
15
60
81
76
31
75
22
62
29
23
77
13
41
40
10
26
56
32
85
18
73
59
11
39
66
67
84
3
63
74
2
44
42
43
65
-1
EOF
